//minimalization function
min: x0 + x1 + x2 + x3 + x4 + x5 + x6 + x7 + x8 + x9 + x10 + x11 + x12 + x13 + x14 + x15;
//constraints for rows and collumns
x0 + x1 + x2 + x3 = 10;
x4 + x5 + x6 + x7 = 10;
x8 + x9 + x10 + x11 = 10;
x12 + x13 + x14 + x15 = 10;
x0 + x4 + x8 + x12 = 10;
x1 + x5 + x9 + x13 = 10;
x2 + x6 + x10 + x14 = 10;
x3 + x7 + x11 + x15 = 10;
//constraints for rows and collumns
x0 - x1 + 4*c0 >= 1;
x1 - x0 + 4*c1 >= 1;
0 <= c0 <= 1;
0 <= c1 <= 1;
c0 + c1 = 1;
x0 - x2 + 4*c2 >= 1;
x2 - x0 + 4*c3 >= 1;
0 <= c2 <= 1;
0 <= c3 <= 1;
c2 + c3 = 1;
x0 - x3 + 4*c4 >= 1;
x3 - x0 + 4*c5 >= 1;
0 <= c4 <= 1;
0 <= c5 <= 1;
c4 + c5 = 1;
x1 - x2 + 4*c6 >= 1;
x2 - x1 + 4*c7 >= 1;
0 <= c6 <= 1;
0 <= c7 <= 1;
c6 + c7 = 1;
x1 - x3 + 4*c8 >= 1;
x3 - x1 + 4*c9 >= 1;
0 <= c8 <= 1;
0 <= c9 <= 1;
c8 + c9 = 1;
x2 - x3 + 4*c10 >= 1;
x3 - x2 + 4*c11 >= 1;
0 <= c10 <= 1;
0 <= c11 <= 1;
c10 + c11 = 1;
x4 - x5 + 4*c12 >= 1;
x5 - x4 + 4*c13 >= 1;
0 <= c12 <= 1;
0 <= c13 <= 1;
c12 + c13 = 1;
x4 - x6 + 4*c14 >= 1;
x6 - x4 + 4*c15 >= 1;
0 <= c14 <= 1;
0 <= c15 <= 1;
c14 + c15 = 1;
x4 - x7 + 4*c16 >= 1;
x7 - x4 + 4*c17 >= 1;
0 <= c16 <= 1;
0 <= c17 <= 1;
c16 + c17 = 1;
x5 - x6 + 4*c18 >= 1;
x6 - x5 + 4*c19 >= 1;
0 <= c18 <= 1;
0 <= c19 <= 1;
c18 + c19 = 1;
x5 - x7 + 4*c20 >= 1;
x7 - x5 + 4*c21 >= 1;
0 <= c20 <= 1;
0 <= c21 <= 1;
c20 + c21 = 1;
x6 - x7 + 4*c22 >= 1;
x7 - x6 + 4*c23 >= 1;
0 <= c22 <= 1;
0 <= c23 <= 1;
c22 + c23 = 1;
x8 - x9 + 4*c24 >= 1;
x9 - x8 + 4*c25 >= 1;
0 <= c24 <= 1;
0 <= c25 <= 1;
c24 + c25 = 1;
x8 - x10 + 4*c26 >= 1;
x10 - x8 + 4*c27 >= 1;
0 <= c26 <= 1;
0 <= c27 <= 1;
c26 + c27 = 1;
x8 - x11 + 4*c28 >= 1;
x11 - x8 + 4*c29 >= 1;
0 <= c28 <= 1;
0 <= c29 <= 1;
c28 + c29 = 1;
x9 - x10 + 4*c30 >= 1;
x10 - x9 + 4*c31 >= 1;
0 <= c30 <= 1;
0 <= c31 <= 1;
c30 + c31 = 1;
x9 - x11 + 4*c32 >= 1;
x11 - x9 + 4*c33 >= 1;
0 <= c32 <= 1;
0 <= c33 <= 1;
c32 + c33 = 1;
x10 - x11 + 4*c34 >= 1;
x11 - x10 + 4*c35 >= 1;
0 <= c34 <= 1;
0 <= c35 <= 1;
c34 + c35 = 1;
x12 - x13 + 4*c36 >= 1;
x13 - x12 + 4*c37 >= 1;
0 <= c36 <= 1;
0 <= c37 <= 1;
c36 + c37 = 1;
x12 - x14 + 4*c38 >= 1;
x14 - x12 + 4*c39 >= 1;
0 <= c38 <= 1;
0 <= c39 <= 1;
c38 + c39 = 1;
x12 - x15 + 4*c40 >= 1;
x15 - x12 + 4*c41 >= 1;
0 <= c40 <= 1;
0 <= c41 <= 1;
c40 + c41 = 1;
x13 - x14 + 4*c42 >= 1;
x14 - x13 + 4*c43 >= 1;
0 <= c42 <= 1;
0 <= c43 <= 1;
c42 + c43 = 1;
x13 - x15 + 4*c44 >= 1;
x15 - x13 + 4*c45 >= 1;
0 <= c44 <= 1;
0 <= c45 <= 1;
c44 + c45 = 1;
x14 - x15 + 4*c46 >= 1;
x15 - x14 + 4*c47 >= 1;
0 <= c46 <= 1;
0 <= c47 <= 1;
c46 + c47 = 1;
x0 - x4 + 4*c48 >= 1;
x4 - x0 + 4*c49 >= 1;
0 <= c48 <= 1;
0 <= c49 <= 1;
c48 + c49 = 1;
x0 - x8 + 4*c50 >= 1;
x8 - x0 + 4*c51 >= 1;
0 <= c50 <= 1;
0 <= c51 <= 1;
c50 + c51 = 1;
x0 - x12 + 4*c52 >= 1;
x12 - x0 + 4*c53 >= 1;
0 <= c52 <= 1;
0 <= c53 <= 1;
c52 + c53 = 1;
x4 - x8 + 4*c54 >= 1;
x8 - x4 + 4*c55 >= 1;
0 <= c54 <= 1;
0 <= c55 <= 1;
c54 + c55 = 1;
x4 - x12 + 4*c56 >= 1;
x12 - x4 + 4*c57 >= 1;
0 <= c56 <= 1;
0 <= c57 <= 1;
c56 + c57 = 1;
x8 - x12 + 4*c58 >= 1;
x12 - x8 + 4*c59 >= 1;
0 <= c58 <= 1;
0 <= c59 <= 1;
c58 + c59 = 1;
x1 - x5 + 4*c60 >= 1;
x5 - x1 + 4*c61 >= 1;
0 <= c60 <= 1;
0 <= c61 <= 1;
c60 + c61 = 1;
x1 - x9 + 4*c62 >= 1;
x9 - x1 + 4*c63 >= 1;
0 <= c62 <= 1;
0 <= c63 <= 1;
c62 + c63 = 1;
x1 - x13 + 4*c64 >= 1;
x13 - x1 + 4*c65 >= 1;
0 <= c64 <= 1;
0 <= c65 <= 1;
c64 + c65 = 1;
x5 - x9 + 4*c66 >= 1;
x9 - x5 + 4*c67 >= 1;
0 <= c66 <= 1;
0 <= c67 <= 1;
c66 + c67 = 1;
x5 - x13 + 4*c68 >= 1;
x13 - x5 + 4*c69 >= 1;
0 <= c68 <= 1;
0 <= c69 <= 1;
c68 + c69 = 1;
x9 - x13 + 4*c70 >= 1;
x13 - x9 + 4*c71 >= 1;
0 <= c70 <= 1;
0 <= c71 <= 1;
c70 + c71 = 1;
x2 - x6 + 4*c72 >= 1;
x6 - x2 + 4*c73 >= 1;
0 <= c72 <= 1;
0 <= c73 <= 1;
c72 + c73 = 1;
x2 - x10 + 4*c74 >= 1;
x10 - x2 + 4*c75 >= 1;
0 <= c74 <= 1;
0 <= c75 <= 1;
c74 + c75 = 1;
x2 - x14 + 4*c76 >= 1;
x14 - x2 + 4*c77 >= 1;
0 <= c76 <= 1;
0 <= c77 <= 1;
c76 + c77 = 1;
x6 - x10 + 4*c78 >= 1;
x10 - x6 + 4*c79 >= 1;
0 <= c78 <= 1;
0 <= c79 <= 1;
c78 + c79 = 1;
x6 - x14 + 4*c80 >= 1;
x14 - x6 + 4*c81 >= 1;
0 <= c80 <= 1;
0 <= c81 <= 1;
c80 + c81 = 1;
x10 - x14 + 4*c82 >= 1;
x14 - x10 + 4*c83 >= 1;
0 <= c82 <= 1;
0 <= c83 <= 1;
c82 + c83 = 1;
x3 - x7 + 4*c84 >= 1;
x7 - x3 + 4*c85 >= 1;
0 <= c84 <= 1;
0 <= c85 <= 1;
c84 + c85 = 1;
x3 - x11 + 4*c86 >= 1;
x11 - x3 + 4*c87 >= 1;
0 <= c86 <= 1;
0 <= c87 <= 1;
c86 + c87 = 1;
x3 - x15 + 4*c88 >= 1;
x15 - x3 + 4*c89 >= 1;
0 <= c88 <= 1;
0 <= c89 <= 1;
c88 + c89 = 1;
x7 - x11 + 4*c90 >= 1;
x11 - x7 + 4*c91 >= 1;
0 <= c90 <= 1;
0 <= c91 <= 1;
c90 + c91 = 1;
x7 - x15 + 4*c92 >= 1;
x15 - x7 + 4*c93 >= 1;
0 <= c92 <= 1;
0 <= c93 <= 1;
c92 + c93 = 1;
x11 - x15 + 4*c94 >= 1;
x15 - x11 + 4*c95 >= 1;
0 <= c94 <= 1;
0 <= c95 <= 1;
c94 + c95 = 1;
//predefined numbers
x15 = 2;
x6 = 1;
x11 = 1;
//constraints between elements
x15 - x11 <= -1;
x7 - x3 >= 1;
x5 - x1 <= -1;
x9 - x8 <= -1;
//variables limits
1 <= x0 <= 4;
1 <= x1 <= 4;
1 <= x2 <= 4;
1 <= x3 <= 4;
1 <= x4 <= 4;
1 <= x5 <= 4;
1 <= x6 <= 4;
1 <= x7 <= 4;
1 <= x8 <= 4;
1 <= x9 <= 4;
1 <= x10 <= 4;
1 <= x11 <= 4;
1 <= x12 <= 4;
1 <= x13 <= 4;
1 <= x14 <= 4;
1 <= x15 <= 4;
//defined integers
int x0, x1, x2, x3, x4, x5, x6, x7, x8, x9, x10, x11, x12, x13, x14, x15, c48, c49, c50, c51, c52, c53, c54, c55, c56, c57, c58, c59, c60, c61, c62, c63, c64, c65, c66, c67, c68, c69, c70, c71, c72, c73, c74, c75, c76, c77, c78, c79, c80, c81, c82, c83, c84, c85, c86, c87, c88, c89, c90, c91, c92, c93, c94, c95, c0, c1, c2, c3, c4, c5, c6, c7, c8, c9, c10, c11, c12, c13, c14, c15, c16, c17, c18, c19, c20, c21, c22, c23, c24, c25, c26, c27, c28, c29, c30, c31, c32, c33, c34, c35, c36, c37, c38, c39, c40, c41, c42, c43, c44, c45, c46, c47;
